certificates/rado_a13_c216_N37.cnf
c Rad2 upper bound instance: x1 + 13*x2 - x3 = 216, interval [1,37]
p cnf 37 210
1 6 17 0
-1 -6 -17 0
1 18 19 0
-1 -18 -19 0
1 19 32 0
-1 -19 -32 0
2 7 17 0
-2 -7 -17 0
2 18 20 0
-2 -18 -20 0
2 19 33 0
-2 -19 -33 0
3 8 17 0
-3 -8 -17 0
3 18 21 0
-3 -18 -21 0
3 19 34 0
-3 -19 -34 0
4 9 17 0
-4 -9 -17 0
4 18 22 0
-4 -18 -22 0
4 19 35 0
-4 -19 -35 0
5 10 17 0
-5 -10 -17 0
5 18 23 0
-5 -18 -23 0
5 19 36 0
-5 -19 -36 0
6 11 17 0
-6 -11 -17 0
6 18 24 0
-6 -18 -24 0
6 19 37 0
-6 -19 -37 0
7 12 17 0
-7 -12 -17 0
7 18 25 0
-7 -18 -25 0
8 13 17 0
-8 -13 -17 0
8 18 26 0
-8 -18 -26 0
1 9 16 0
-1 -9 -16 0
9 14 17 0
-9 -14 -17 0
9 18 27 0
-9 -18 -27 0
2 10 16 0
-2 -10 -16 0
10 15 17 0
-10 -15 -17 0
10 18 28 0
-10 -18 -28 0
3 11 16 0
-3 -11 -16 0
11 16 17 0
-11 -16 -17 0
11 18 29 0
-11 -18 -29 0
4 12 16 0
-4 -12 -16 0
12 17 0
-12 -17 0
12 18 30 0
-12 -18 -30 0
5 13 16 0
-5 -13 -16 0
13 17 18 0
-13 -17 -18 0
13 18 31 0
-13 -18 -31 0
6 14 16 0
-6 -14 -16 0
14 17 19 0
-14 -17 -19 0
14 18 32 0
-14 -18 -32 0
7 15 16 0
-7 -15 -16 0
15 17 20 0
-15 -17 -20 0
15 18 33 0
-15 -18 -33 0
8 16 0
-8 -16 0
16 17 21 0
-16 -17 -21 0
16 18 34 0
-16 -18 -34 0
9 16 17 0
-9 -16 -17 0
17 22 0
-17 -22 0
17 18 35 0
-17 -18 -35 0
10 16 18 0
-10 -16 -18 0
17 18 23 0
-17 -18 -23 0
18 36 0
-18 -36 0
11 16 19 0
-11 -16 -19 0
17 19 24 0
-17 -19 -24 0
18 19 37 0
-18 -19 -37 0
12 16 20 0
-12 -16 -20 0
17 20 25 0
-17 -20 -25 0
13 16 21 0
-13 -16 -21 0
17 21 26 0
-17 -21 -26 0
1 15 22 0
-1 -15 -22 0
14 16 22 0
-14 -16 -22 0
17 22 27 0
-17 -22 -27 0
2 15 23 0
-2 -15 -23 0
15 16 23 0
-15 -16 -23 0
17 23 28 0
-17 -23 -28 0
3 15 24 0
-3 -15 -24 0
16 24 0
-16 -24 0
17 24 29 0
-17 -24 -29 0
4 15 25 0
-4 -15 -25 0
16 17 25 0
-16 -17 -25 0
17 25 30 0
-17 -25 -30 0
5 15 26 0
-5 -15 -26 0
16 18 26 0
-16 -18 -26 0
17 26 31 0
-17 -26 -31 0
6 15 27 0
-6 -15 -27 0
16 19 27 0
-16 -19 -27 0
17 27 32 0
-17 -27 -32 0
7 15 28 0
-7 -15 -28 0
16 20 28 0
-16 -20 -28 0
17 28 33 0
-17 -28 -33 0
8 15 29 0
-8 -15 -29 0
16 21 29 0
-16 -21 -29 0
17 29 34 0
-17 -29 -34 0
9 15 30 0
-9 -15 -30 0
16 22 30 0
-16 -22 -30 0
17 30 35 0
-17 -30 -35 0
10 15 31 0
-10 -15 -31 0
16 23 31 0
-16 -23 -31 0
17 31 36 0
-17 -31 -36 0
11 15 32 0
-11 -15 -32 0
16 24 32 0
-16 -24 -32 0
17 32 37 0
-17 -32 -37 0
12 15 33 0
-12 -15 -33 0
16 25 33 0
-16 -25 -33 0
13 15 34 0
-13 -15 -34 0
16 26 34 0
-16 -26 -34 0
1 14 35 0
-1 -14 -35 0
14 15 35 0
-14 -15 -35 0
16 27 35 0
-16 -27 -35 0
2 14 36 0
-2 -14 -36 0
15 36 0
-15 -36 0
16 28 36 0
-16 -28 -36 0
3 14 37 0
-3 -14 -37 0
15 16 37 0
-15 -16 -37 0
16 29 37 0
-16 -29 -37 0
