certificates/rado_a13_c216_N37.drat
-19 -32 -37 0
-32 -35 18 -37 0
-35 18 -37 0
d -32 -35 18 -37 0
-36 -37 0
-37 0
19 32 0
-18 32 0
32 0
-19 -17 0
-17 0
12 0
22 0
19 0
-1 0
6 0
36 0
-18 0
-15 0
-5 0
33 0
35 0
23 0
13 0
16 0
10 0
20 0
26 0
-2 0
-4 0
-8 0
-11 0
0
